r = [
0,130,101,104,93,101,140,133,55,5,13,0
];
p = [
0,6,1,18,28,18,22,30,18,2,27,0
];
e = [
0,5,6,4,9,19,19,17,10,6,10,0
];
d = [
0,136,122,155,121,119,162,163,107,19,40,178
];
d_bar = [
0,139,123,164,135,128,173,178,116,20,54,178
];
w = [
0,1.666666667,6,0.444444444,0.642857143,2.111111111,1.727272727,1.133333333,1.111111111,6,0.714285714,0
];
